p cnf 289 1
289 0
w 1 0.286483
w 2 1 0.638085
w 2 -1 0.0314495
w 3 2 0
w 3 -2 1
w 4 3 0
w 4 -3 1
w 5 4 0
w 5 -4 1
w 6 5 0
w 6 -5 1
w 7 6 0.926602
w 7 -6 0.567399
w 8 7 0
w 8 -7 1
w 9 8 0.903302
w 9 -8 0.480907
w 10 9 0.356042
w 10 -9 0.0522453
w 11 10 0
w 11 -10 1
w 12 11 0.649859
w 12 -11 0.279265
w 13 12 0.952722
w 13 -12 0.158615
w 14 13 1
w 14 -13 0
w 15 14 0.231558
w 15 -14 2.27597e-05
w 16 15 0.251233
w 16 -15 0.343227
w 17 16 0.770922
w 17 -16 0.721056
w 18 1 0.32398
w 18 -1 0.647658
w 19 18 2 0
w 19 18 -2 1
w 19 -18 2 1
w 19 -18 -2 0
w 20 19 3 0.966401
w 20 19 -3 0.802574
w 20 -19 3 0.952171
w 20 -19 -3 0.0220216
w 21 20 4 0.645853
w 21 20 -4 0.671881
w 21 -20 4 0.192165
w 21 -20 -4 0.559479
w 22 21 5 0.35078
w 22 21 -5 0.759587
w 22 -21 5 0.539185
w 22 -21 -5 0.147479
w 23 22 6 0.539208
w 23 22 -6 0.876954
w 23 -22 6 0.242379
w 23 -22 -6 0.882434
w 24 23 7 0.0133011
w 24 23 -7 0.603491
w 24 -23 7 0.435694
w 24 -23 -7 0.337281
w 25 24 8 0
w 25 24 -8 0
w 25 -24 8 1
w 25 -24 -8 1
w 26 25 9 0
w 26 25 -9 1
w 26 -25 9 1
w 26 -25 -9 0
w 27 26 10 0.0425177
w 27 26 -10 0.168116
w 27 -26 10 0.449904
w 27 -26 -10 0.234683
w 28 27 11 0.0745063
w 28 27 -11 0.585463
w 28 -27 11 0.487182
w 28 -27 -11 0.613691
w 29 28 12 0.478327
w 29 28 -12 0.152899
w 29 -28 12 0.609896
w 29 -28 -12 0.720706
w 30 29 13 0
w 30 29 -13 0
w 30 -29 13 0
w 30 -29 -13 1
w 31 30 14 0
w 31 30 -14 1
w 31 -30 14 1
w 31 -30 -14 1
w 32 31 15 0
w 32 31 -15 1
w 32 -31 15 0
w 32 -31 -15 1
w 33 32 16 0.808
w 33 32 -16 0.450976
w 33 -32 16 0.82061
w 33 -32 -16 0.257904
w 34 33 17 0.548204
w 34 33 -17 0.332411
w 34 -33 17 0.271123
w 34 -33 -17 0.0353855
w 35 18 0.0040647
w 35 -18 0.513713
w 36 35 19 0
w 36 35 -19 0
w 36 -35 19 0
w 36 -35 -19 1
w 37 36 20 0.773157
w 37 36 -20 0.661482
w 37 -36 20 0.0397131
w 37 -36 -20 0.663129
w 38 37 21 0
w 38 37 -21 1
w 38 -37 21 1
w 38 -37 -21 0
w 39 38 22 1
w 39 38 -22 1
w 39 -38 22 1
w 39 -38 -22 0
w 40 39 23 0.515716
w 40 39 -23 0.815448
w 40 -39 23 0.374807
w 40 -39 -23 0.848127
w 41 40 24 0
w 41 40 -24 0
w 41 -40 24 0
w 41 -40 -24 1
w 42 41 25 0.158324
w 42 41 -25 0.0275625
w 42 -41 25 0.62447
w 42 -41 -25 0.126749
w 43 42 26 0.285952
w 43 42 -26 0.166462
w 43 -42 26 0.463849
w 43 -42 -26 0.43181
w 44 43 27 0
w 44 43 -27 1
w 44 -43 27 0
w 44 -43 -27 1
w 45 44 28 1
w 45 44 -28 0
w 45 -44 28 1
w 45 -44 -28 0
w 46 45 29 0.0749836
w 46 45 -29 0.0523737
w 46 -45 29 0.248019
w 46 -45 -29 0.92311
w 47 46 30 0
w 47 46 -30 1
w 47 -46 30 0
w 47 -46 -30 0
w 48 47 31 0.740441
w 48 47 -31 0.63813
w 48 -47 31 0.558644
w 48 -47 -31 0.86719
w 49 48 32 0
w 49 48 -32 0
w 49 -48 32 1
w 49 -48 -32 0
w 50 49 33 0.128049
w 50 49 -33 0.619952
w 50 -49 33 0.630432
w 50 -49 -33 0.429504
w 51 50 34 0.677042
w 51 50 -34 0.988772
w 51 -50 34 0.964016
w 51 -50 -34 0.550254
w 52 35 0
w 52 -35 1
w 53 52 36 0.986866
w 53 52 -36 0.155334
w 53 -52 36 0.456485
w 53 -52 -36 0.704205
w 54 53 37 0
w 54 53 -37 1
w 54 -53 37 0
w 54 -53 -37 1
w 55 54 38 0.877731
w 55 54 -38 0.646232
w 55 -54 38 0.391753
w 55 -54 -38 0.722327
w 56 55 39 0.294452
w 56 55 -39 0.998732
w 56 -55 39 0.871509
w 56 -55 -39 0.884268
w 57 56 40 1
w 57 56 -40 1
w 57 -56 40 0
w 57 -56 -40 1
w 58 57 41 1
w 58 57 -41 1
w 58 -57 41 1
w 58 -57 -41 0
w 59 58 42 0.595679
w 59 58 -42 0.354291
w 59 -58 42 0.996754
w 59 -58 -42 0.299884
w 60 59 43 0.0353567
w 60 59 -43 0.614657
w 60 -59 43 0.058289
w 60 -59 -43 0.814399
w 61 60 44 0.93602
w 61 60 -44 0.460632
w 61 -60 44 0.959313
w 61 -60 -44 0.658346
w 62 61 45 0
w 62 61 -45 1
w 62 -61 45 1
w 62 -61 -45 1
w 63 62 46 0.503486
w 63 62 -46 0.652734
w 63 -62 46 0.340146
w 63 -62 -46 0.722038
w 64 63 47 0.885204
w 64 63 -47 0.904605
w 64 -63 47 0.586472
w 64 -63 -47 0.494017
w 65 64 48 1
w 65 64 -48 1
w 65 -64 48 1
w 65 -64 -48 0
w 66 65 49 1
w 66 65 -49 1
w 66 -65 49 0
w 66 -65 -49 0
w 67 66 50 0.571797
w 67 66 -50 0.191364
w 67 -66 50 0.433883
w 67 -66 -50 0.53111
w 68 67 51 0.574399
w 68 67 -51 0.784875
w 68 -67 51 0.506789
w 68 -67 -51 0.586424
w 69 52 0.290649
w 69 -52 0.0899108
w 70 69 53 0.630795
w 70 69 -53 0.811948
w 70 -69 53 0.420118
w 70 -69 -53 0.515999
w 71 70 54 0.00659003
w 71 70 -54 0.0100163
w 71 -70 54 0.820115
w 71 -70 -54 0.133331
w 72 71 55 1
w 72 71 -55 0
w 72 -71 55 1
w 72 -71 -55 0
w 73 72 56 1
w 73 72 -56 0
w 73 -72 56 1
w 73 -72 -56 0
w 74 73 57 0.822813
w 74 73 -57 0.596438
w 74 -73 57 0.771444
w 74 -73 -57 0.397213
w 75 74 58 1
w 75 74 -58 1
w 75 -74 58 1
w 75 -74 -58 0
w 76 75 59 1
w 76 75 -59 0
w 76 -75 59 0
w 76 -75 -59 1
w 77 76 60 0.602049
w 77 76 -60 0.306573
w 77 -76 60 0.725692
w 77 -76 -60 0.422165
w 78 77 61 0
w 78 77 -61 1
w 78 -77 61 1
w 78 -77 -61 1
w 79 78 62 1
w 79 78 -62 0
w 79 -78 62 0
w 79 -78 -62 0
w 80 79 63 0.827258
w 80 79 -63 0.324152
w 80 -79 63 0.469995
w 80 -79 -63 0.598702
w 81 80 64 0.851308
w 81 80 -64 0.876935
w 81 -80 64 0.705002
w 81 -80 -64 0.15553
w 82 81 65 1
w 82 81 -65 0
w 82 -81 65 1
w 82 -81 -65 1
w 83 82 66 1
w 83 82 -66 0
w 83 -82 66 0
w 83 -82 -66 1
w 84 83 67 0.0818542
w 84 83 -67 0.912268
w 84 -83 67 0.388392
w 84 -83 -67 0.778584
w 85 84 68 0
w 85 84 -68 1
w 85 -84 68 1
w 85 -84 -68 0
w 86 69 0
w 86 -69 1
w 87 86 70 0
w 87 86 -70 1
w 87 -86 70 1
w 87 -86 -70 0
w 88 87 71 0
w 88 87 -71 1
w 88 -87 71 1
w 88 -87 -71 0
w 89 88 72 0.420978
w 89 88 -72 0.86328
w 89 -88 72 0.585445
w 89 -88 -72 0.756355
w 90 89 73 0
w 90 89 -73 0
w 90 -89 73 0
w 90 -89 -73 1
w 91 90 74 1
w 91 90 -74 1
w 91 -90 74 0
w 91 -90 -74 0
w 92 91 75 1
w 92 91 -75 0
w 92 -91 75 1
w 92 -91 -75 1
w 93 92 76 0
w 93 92 -76 1
w 93 -92 76 0
w 93 -92 -76 1
w 94 93 77 0.00329225
w 94 93 -77 0.924152
w 94 -93 77 0.839253
w 94 -93 -77 0.388876
w 95 94 78 1
w 95 94 -78 0
w 95 -94 78 1
w 95 -94 -78 0
w 96 95 79 0.229668
w 96 95 -79 0.197636
w 96 -95 79 0.964515
w 96 -95 -79 0.540981
w 97 96 80 0.444675
w 97 96 -80 0.76456
w 97 -96 80 0.665626
w 97 -96 -80 0.703419
w 98 97 81 1
w 98 97 -81 0
w 98 -97 81 0
w 98 -97 -81 1
w 99 98 82 0
w 99 98 -82 1
w 99 -98 82 0
w 99 -98 -82 0
w 100 99 83 0.350182
w 100 99 -83 0.87187
w 100 -99 83 0.451663
w 100 -99 -83 0.189435
w 101 100 84 1
w 101 100 -84 1
w 101 -100 84 1
w 101 -100 -84 0
w 102 101 85 0
w 102 101 -85 0
w 102 -101 85 0
w 102 -101 -85 1
w 103 86 1
w 103 -86 0
w 104 103 87 1
w 104 103 -87 0
w 104 -103 87 1
w 104 -103 -87 1
w 105 104 88 0
w 105 104 -88 1
w 105 -104 88 0
w 105 -104 -88 1
w 106 105 89 1
w 106 105 -89 0
w 106 -105 89 0
w 106 -105 -89 1
w 107 106 90 1
w 107 106 -90 1
w 107 -106 90 1
w 107 -106 -90 0
w 108 107 91 1
w 108 107 -91 1
w 108 -107 91 0
w 108 -107 -91 0
w 109 108 92 0.547834
w 109 108 -92 0.93129
w 109 -108 92 0.455248
w 109 -108 -92 0.917302
w 110 109 93 1
w 110 109 -93 1
w 110 -109 93 0
w 110 -109 -93 0
w 111 110 94 1
w 111 110 -94 0
w 111 -110 94 0
w 111 -110 -94 0
w 112 111 95 0.595767
w 112 111 -95 0.833847
w 112 -111 95 0.502627
w 112 -111 -95 0.609665
w 113 112 96 0.504392
w 113 112 -96 0.495433
w 113 -112 96 0.436036
w 113 -112 -96 0.695592
w 114 113 97 0.556563
w 114 113 -97 0.836879
w 114 -113 97 0.859061
w 114 -113 -97 0.275909
w 115 114 98 0
w 115 114 -98 0
w 115 -114 98 1
w 115 -114 -98 1
w 116 115 99 0.368183
w 116 115 -99 0.66948
w 116 -115 99 0.792374
w 116 -115 -99 0.427606
w 117 116 100 0.192839
w 117 116 -100 0.541274
w 117 -116 100 0.773389
w 117 -116 -100 0.643285
w 118 117 101 0.624434
w 118 117 -101 0.239052
w 118 -117 101 0.661215
w 118 -117 -101 0.127061
w 119 118 102 0.570325
w 119 118 -102 0.631454
w 119 -118 102 0.344151
w 119 -118 -102 0.00636058
w 120 103 1
w 120 -103 0
w 121 120 104 0.163926
w 121 120 -104 0.845159
w 121 -120 104 0.838832
w 121 -120 -104 0.438275
w 122 121 105 0.662575
w 122 121 -105 0.643914
w 122 -121 105 0.726376
w 122 -121 -105 0.403619
w 123 122 106 0
w 123 122 -106 0
w 123 -122 106 1
w 123 -122 -106 1
w 124 123 107 1
w 124 123 -107 0
w 124 -123 107 0
w 124 -123 -107 0
w 125 124 108 0.271169
w 125 124 -108 0.46956
w 125 -124 108 0.840886
w 125 -124 -108 0.119886
w 126 125 109 0
w 126 125 -109 1
w 126 -125 109 0
w 126 -125 -109 0
w 127 126 110 1
w 127 126 -110 1
w 127 -126 110 1
w 127 -126 -110 0
w 128 127 111 1
w 128 127 -111 1
w 128 -127 111 0
w 128 -127 -111 1
w 129 128 112 0.0575977
w 129 128 -112 0.97567
w 129 -128 112 0.710187
w 129 -128 -112 0.497301
w 130 129 113 1
w 130 129 -113 1
w 130 -129 113 1
w 130 -129 -113 0
w 131 130 114 1
w 131 130 -114 1
w 131 -130 114 0
w 131 -130 -114 1
w 132 131 115 0.408112
w 132 131 -115 0.986229
w 132 -131 115 0.842313
w 132 -131 -115 0.207498
w 133 132 116 1
w 133 132 -116 0
w 133 -132 116 0
w 133 -132 -116 1
w 134 133 117 0.585097
w 134 133 -117 0.0100578
w 134 -133 117 0.617896
w 134 -133 -117 0.164912
w 135 134 118 0.675494
w 135 134 -118 0.140581
w 135 -134 118 0.23444
w 135 -134 -118 0.172795
w 136 135 119 0
w 136 135 -119 1
w 136 -135 119 0
w 136 -135 -119 1
w 137 120 0.908202
w 137 -120 0.8669
w 138 137 121 0.843974
w 138 137 -121 0.389091
w 138 -137 121 0.489948
w 138 -137 -121 0.252087
w 139 138 122 1
w 139 138 -122 1
w 139 -138 122 0
w 139 -138 -122 0
w 140 139 123 0.543342
w 140 139 -123 0.683225
w 140 -139 123 0.20279
w 140 -139 -123 0.12844
w 141 140 124 0.820686
w 141 140 -124 0.293351
w 141 -140 124 0.217535
w 141 -140 -124 0.49618
w 142 141 125 0
w 142 141 -125 1
w 142 -141 125 1
w 142 -141 -125 1
w 143 142 126 0.250028
w 143 142 -126 0.257746
w 143 -142 126 0.587703
w 143 -142 -126 0.116928
w 144 143 127 0.431677
w 144 143 -127 0.506019
w 144 -143 127 0.441575
w 144 -143 -127 0.683764
w 145 144 128 0.773836
w 145 144 -128 0.143348
w 145 -144 128 0.693022
w 145 -144 -128 0.557579
w 146 145 129 0.236364
w 146 145 -129 0.240804
w 146 -145 129 0.976532
w 146 -145 -129 0.364804
w 147 146 130 0.797218
w 147 146 -130 0.658155
w 147 -146 130 0.151623
w 147 -146 -130 0.293398
w 148 147 131 0
w 148 147 -131 0
w 148 -147 131 0
w 148 -147 -131 1
w 149 148 132 0
w 149 148 -132 0
w 149 -148 132 1
w 149 -148 -132 1
w 150 149 133 0.491793
w 150 149 -133 0.657153
w 150 -149 133 0.262007
w 150 -149 -133 0.933368
w 151 150 134 1
w 151 150 -134 0
w 151 -150 134 1
w 151 -150 -134 0
w 152 151 135 1
w 152 151 -135 0
w 152 -151 135 0
w 152 -151 -135 0
w 153 152 136 1
w 153 152 -136 1
w 153 -152 136 0
w 153 -152 -136 0
w 154 137 0
w 154 -137 1
w 155 154 138 0
w 155 154 -138 0
w 155 -154 138 0
w 155 -154 -138 1
w 156 155 139 1
w 156 155 -139 0
w 156 -155 139 0
w 156 -155 -139 0
w 157 156 140 0.240982
w 157 156 -140 0.535277
w 157 -156 140 0.00736957
w 157 -156 -140 0.384327
w 158 157 141 1
w 158 157 -141 1
w 158 -157 141 1
w 158 -157 -141 0
w 159 158 142 0
w 159 158 -142 0
w 159 -158 142 1
w 159 -158 -142 0
w 160 159 143 0
w 160 159 -143 0
w 160 -159 143 0
w 160 -159 -143 1
w 161 160 144 0.160477
w 161 160 -144 0.822647
w 161 -160 144 0.198567
w 161 -160 -144 0.944301
w 162 161 145 0
w 162 161 -145 0
w 162 -161 145 1
w 162 -161 -145 0
w 163 162 146 1
w 163 162 -146 0
w 163 -162 146 0
w 163 -162 -146 0
w 164 163 147 1
w 164 163 -147 0
w 164 -163 147 1
w 164 -163 -147 1
w 165 164 148 0
w 165 164 -148 0
w 165 -164 148 0
w 165 -164 -148 1
w 166 165 149 0.209906
w 166 165 -149 0.736074
w 166 -165 149 0.943537
w 166 -165 -149 0.838524
w 167 166 150 0.766184
w 167 166 -150 0.0370913
w 167 -166 150 0.840853
w 167 -166 -150 0.811818
w 168 167 151 0
w 168 167 -151 0
w 168 -167 151 0
w 168 -167 -151 1
w 169 168 152 0.0419308
w 169 168 -152 0.751935
w 169 -168 152 0.39059
w 169 -168 -152 0.160989
w 170 169 153 0.586205
w 170 169 -153 0.0296877
w 170 -169 153 0.786584
w 170 -169 -153 0.794672
w 171 154 0.681581
w 171 -154 0.455665
w 172 171 155 0.403228
w 172 171 -155 0.160482
w 172 -171 155 0.961288
w 172 -171 -155 0.139302
w 173 172 156 1
w 173 172 -156 0
w 173 -172 156 0
w 173 -172 -156 0
w 174 173 157 0.682021
w 174 173 -157 0.182678
w 174 -173 157 0.671159
w 174 -173 -157 0.518448
w 175 174 158 1
w 175 174 -158 0
w 175 -174 158 0
w 175 -174 -158 0
w 176 175 159 0
w 176 175 -159 0
w 176 -175 159 1
w 176 -175 -159 0
w 177 176 160 0
w 177 176 -160 0
w 177 -176 160 1
w 177 -176 -160 1
w 178 177 161 0
w 178 177 -161 1
w 178 -177 161 1
w 178 -177 -161 0
w 179 178 162 1
w 179 178 -162 1
w 179 -178 162 0
w 179 -178 -162 1
w 180 179 163 0.918201
w 180 179 -163 0.185141
w 180 -179 163 0.732906
w 180 -179 -163 0.589361
w 181 180 164 0.171952
w 181 180 -164 0.675027
w 181 -180 164 0.324055
w 181 -180 -164 0.313237
w 182 181 165 0.696455
w 182 181 -165 0.845111
w 182 -181 165 0.0912111
w 182 -181 -165 0.691403
w 183 182 166 0.409485
w 183 182 -166 0.472935
w 183 -182 166 0.875942
w 183 -182 -166 0.610326
w 184 183 167 0.244359
w 184 183 -167 0.562549
w 184 -183 167 0.802387
w 184 -183 -167 0.773257
w 185 184 168 0
w 185 184 -168 1
w 185 -184 168 0
w 185 -184 -168 1
w 186 185 169 0.73961
w 186 185 -169 0.767726
w 186 -185 169 0.0944355
w 186 -185 -169 0.472516
w 187 186 170 1
w 187 186 -170 0
w 187 -186 170 1
w 187 -186 -170 0
w 188 171 0.834739
w 188 -171 0.818534
w 189 188 172 0.92595
w 189 188 -172 0.509937
w 189 -188 172 0.766007
w 189 -188 -172 0.335435
w 190 189 173 0.641949
w 190 189 -173 0.945761
w 190 -189 173 0.918919
w 190 -189 -173 0.886308
w 191 190 174 0.721307
w 191 190 -174 0.659565
w 191 -190 174 0.984369
w 191 -190 -174 0.529336
w 192 191 175 0
w 192 191 -175 1
w 192 -191 175 0
w 192 -191 -175 0
w 193 192 176 1
w 193 192 -176 1
w 193 -192 176 1
w 193 -192 -176 0
w 194 193 177 0
w 194 193 -177 0
w 194 -193 177 0
w 194 -193 -177 1
w 195 194 178 0.790868
w 195 194 -178 0.296476
w 195 -194 178 0.318044
w 195 -194 -178 0.556875
w 196 195 179 0.300917
w 196 195 -179 0.198824
w 196 -195 179 0.577671
w 196 -195 -179 0.219836
w 197 196 180 1
w 197 196 -180 1
w 197 -196 180 0
w 197 -196 -180 1
w 198 197 181 1
w 198 197 -181 0
w 198 -197 181 0
w 198 -197 -181 1
w 199 198 182 1
w 199 198 -182 0
w 199 -198 182 1
w 199 -198 -182 0
w 200 199 183 0.573693
w 200 199 -183 0.0353867
w 200 -199 183 0.712005
w 200 -199 -183 0.561744
w 201 200 184 0
w 201 200 -184 1
w 201 -200 184 0
w 201 -200 -184 0
w 202 201 185 0.334299
w 202 201 -185 0.139072
w 202 -201 185 0.10831
w 202 -201 -185 0.91197
w 203 202 186 1
w 203 202 -186 1
w 203 -202 186 0
w 203 -202 -186 1
w 204 203 187 1
w 204 203 -187 1
w 204 -203 187 0
w 204 -203 -187 1
w 205 188 0
w 205 -188 1
w 206 205 189 0
w 206 205 -189 0
w 206 -205 189 0
w 206 -205 -189 1
w 207 206 190 0.148653
w 207 206 -190 0.556695
w 207 -206 190 0.343532
w 207 -206 -190 0.501265
w 208 207 191 0
w 208 207 -191 1
w 208 -207 191 0
w 208 -207 -191 0
w 209 208 192 0.505352
w 209 208 -192 0.679669
w 209 -208 192 0.712504
w 209 -208 -192 0.503303
w 210 209 193 0.650644
w 210 209 -193 0.571604
w 210 -209 193 0.75025
w 210 -209 -193 0.399219
w 211 210 194 0.37012
w 211 210 -194 0.933264
w 211 -210 194 0.353878
w 211 -210 -194 0.985916
w 212 211 195 0
w 212 211 -195 1
w 212 -211 195 0
w 212 -211 -195 0
w 213 212 196 1
w 213 212 -196 0
w 213 -212 196 1
w 213 -212 -196 0
w 214 213 197 1
w 214 213 -197 1
w 214 -213 197 0
w 214 -213 -197 1
w 215 214 198 1
w 215 214 -198 0
w 215 -214 198 1
w 215 -214 -198 1
w 216 215 199 0.241514
w 216 215 -199 0.512706
w 216 -215 199 0.296101
w 216 -215 -199 0.125522
w 217 216 200 0.229365
w 217 216 -200 0.4794
w 217 -216 200 0.868743
w 217 -216 -200 0.551613
w 218 217 201 0.970055
w 218 217 -201 0.985277
w 218 -217 201 0.800497
w 218 -217 -201 0.22215
w 219 218 202 0
w 219 218 -202 1
w 219 -218 202 0
w 219 -218 -202 0
w 220 219 203 0.521745
w 220 219 -203 0.76007
w 220 -219 203 0.728352
w 220 -219 -203 0.0554786
w 221 220 204 0.511088
w 221 220 -204 0.301716
w 221 -220 204 0.596587
w 221 -220 -204 0.273544
w 222 205 0
w 222 -205 1
w 223 222 206 0.494699
w 223 222 -206 0.963622
w 223 -222 206 0.669076
w 223 -222 -206 0.724063
w 224 223 207 0
w 224 223 -207 0
w 224 -223 207 0
w 224 -223 -207 1
w 225 224 208 1
w 225 224 -208 0
w 225 -224 208 1
w 225 -224 -208 1
w 226 225 209 1
w 226 225 -209 0
w 226 -225 209 1
w 226 -225 -209 1
w 227 226 210 0.699934
w 227 226 -210 0.0774623
w 227 -226 210 0.546525
w 227 -226 -210 0.211022
w 228 227 211 0
w 228 227 -211 1
w 228 -227 211 0
w 228 -227 -211 0
w 229 228 212 1
w 229 228 -212 0
w 229 -228 212 0
w 229 -228 -212 0
w 230 229 213 1
w 230 229 -213 1
w 230 -229 213 0
w 230 -229 -213 0
w 231 230 214 1
w 231 230 -214 0
w 231 -230 214 0
w 231 -230 -214 0
w 232 231 215 1
w 232 231 -215 0
w 232 -231 215 0
w 232 -231 -215 1
w 233 232 216 1
w 233 232 -216 0
w 233 -232 216 1
w 233 -232 -216 1
w 234 233 217 0
w 234 233 -217 1
w 234 -233 217 0
w 234 -233 -217 0
w 235 234 218 0.8207
w 235 234 -218 0.389667
w 235 -234 218 0.571884
w 235 -234 -218 0.760592
w 236 235 219 1
w 236 235 -219 1
w 236 -235 219 1
w 236 -235 -219 0
w 237 236 220 0
w 237 236 -220 1
w 237 -236 220 1
w 237 -236 -220 0
w 238 237 221 1
w 238 237 -221 0
w 238 -237 221 0
w 238 -237 -221 1
w 239 222 0.708617
w 239 -222 0.708617
w 240 239 223 0.0688543
w 240 239 -223 0.211342
w 240 -239 223 0.68484
w 240 -239 -223 0.80827
w 241 240 224 0.234725
w 241 240 -224 0.125462
w 241 -240 224 0.484228
w 241 -240 -224 0.0554251
w 242 241 225 0.0561118
w 242 241 -225 0.816017
w 242 -241 225 0.701336
w 242 -241 -225 0.0158528
w 243 242 226 0
w 243 242 -226 0
w 243 -242 226 1
w 243 -242 -226 0
w 244 243 227 0
w 244 243 -227 1
w 244 -243 227 0
w 244 -243 -227 1
w 245 244 228 0.648362
w 245 244 -228 0.386188
w 245 -244 228 0.355507
w 245 -244 -228 0.356979
w 246 245 229 1
w 246 245 -229 0
w 246 -245 229 1
w 246 -245 -229 1
w 247 246 230 1
w 247 246 -230 0
w 247 -246 230 0
w 247 -246 -230 1
w 248 247 231 0.874696
w 248 247 -231 0.703664
w 248 -247 231 0.766035
w 248 -247 -231 0.576032
w 249 248 232 0.820355
w 249 248 -232 0.535789
w 249 -248 232 0.372484
w 249 -248 -232 0.0985616
w 250 249 233 1
w 250 249 -233 0
w 250 -249 233 0
w 250 -249 -233 1
w 251 250 234 0.656846
w 251 250 -234 0.300832
w 251 -250 234 0.33622
w 251 -250 -234 0.0123532
w 252 251 235 0.431025
w 252 251 -235 0.987381
w 252 -251 235 0.0836457
w 252 -251 -235 0.737172
w 253 252 236 0.317749
w 253 252 -236 0.900497
w 253 -252 236 0.54184
w 253 -252 -236 0.677315
w 254 253 237 0.491858
w 254 253 -237 0.552011
w 254 -253 237 0.251714
w 254 -253 -237 0.257892
w 255 254 238 1
w 255 254 -238 1
w 255 -254 238 0
w 255 -254 -238 0
w 256 239 1
w 256 -239 0
w 257 256 240 0.493072
w 257 256 -240 0.817531
w 257 -256 240 0.426137
w 257 -256 -240 0.443105
w 258 257 241 1
w 258 257 -241 0
w 258 -257 241 1
w 258 -257 -241 0
w 259 258 242 1
w 259 258 -242 1
w 259 -258 242 0
w 259 -258 -242 0
w 260 259 243 0.848019
w 260 259 -243 0.6632
w 260 -259 243 0.463492
w 260 -259 -243 0.396068
w 261 260 244 0
w 261 260 -244 0
w 261 -260 244 0
w 261 -260 -244 1
w 262 261 245 0.491197
w 262 261 -245 0.807377
w 262 -261 245 0.962728
w 262 -261 -245 0.668005
w 263 262 246 0.736395
w 263 262 -246 0.161077
w 263 -262 246 0.375877
w 263 -262 -246 0.162531
w 264 263 247 0.850255
w 264 263 -247 0.889501
w 264 -263 247 0.383507
w 264 -263 -247 0.336985
w 265 264 248 1
w 265 264 -248 1
w 265 -264 248 0
w 265 -264 -248 1
w 266 265 249 0.528885
w 266 265 -249 0.389398
w 266 -265 249 0.595656
w 266 -265 -249 0.992376
w 267 266 250 0.750714
w 267 266 -250 0.00787911
w 267 -266 250 0.433248
w 267 -266 -250 0.163663
w 268 267 251 1
w 268 267 -251 1
w 268 -267 251 0
w 268 -267 -251 1
w 269 268 252 1
w 269 268 -252 1
w 269 -268 252 1
w 269 -268 -252 0
w 270 269 253 0.0881234
w 270 269 -253 0.743279
w 270 -269 253 0.803415
w 270 -269 -253 0.47163
w 271 270 254 0
w 271 270 -254 1
w 271 -270 254 0
w 271 -270 -254 0
w 272 271 255 0.823817
w 272 271 -255 0.34929
w 272 -271 255 0.996263
w 272 -271 -255 0.419473
w 273 256 1
w 273 -256 0
w 274 273 257 0
w 274 273 -257 1
w 274 -273 257 0
w 274 -273 -257 1
w 275 274 258 0
w 275 274 -258 1
w 275 -274 258 0
w 275 -274 -258 0
w 276 275 259 0.03361
w 276 275 -259 0.795517
w 276 -275 259 0.869944
w 276 -275 -259 0.947525
w 277 276 260 0.613223
w 277 276 -260 0.75094
w 277 -276 260 0.355271
w 277 -276 -260 0.693487
w 278 277 261 0.420757
w 278 277 -261 0.584848
w 278 -277 261 0.649043
w 278 -277 -261 0.0276226
w 279 278 262 0
w 279 278 -262 0
w 279 -278 262 0
w 279 -278 -262 1
w 280 279 263 0.689545
w 280 279 -263 0.0205909
w 280 -279 263 0.332175
w 280 -279 -263 0.190515
w 281 280 264 1
w 281 280 -264 0
w 281 -280 264 1
w 281 -280 -264 1
w 282 281 265 0.427978
w 282 281 -265 0.49715
w 282 -281 265 0.551189
w 282 -281 -265 0.311619
w 283 282 266 0
w 283 282 -266 0
w 283 -282 266 1
w 283 -282 -266 1
w 284 283 267 0
w 284 283 -267 0
w 284 -283 267 1
w 284 -283 -267 0
w 285 284 268 0.139155
w 285 284 -268 0.625511
w 285 -284 268 0.118141
w 285 -284 -268 0.944769
w 286 285 269 0.807686
w 286 285 -269 0.96536
w 286 -285 269 0.956011
w 286 -285 -269 0.998201
w 287 286 270 0
w 287 286 -270 1
w 287 -286 270 0
w 287 -286 -270 0
w 288 287 271 0
w 288 287 -271 1
w 288 -287 271 1
w 288 -287 -271 0
w 289 288 272 0.883217
w 289 288 -272 0.280227
w 289 -288 272 0.315844
w 289 -288 -272 0.687077